0 28 31 41 47 48 49 50 44 45 46 43 15 32 2 68 33 22 19 20 21 74 9 3 8 7 6 71 72 69 70 36 35 56 55 54 53 52 59 58 57 34 51 5 40 4 1 14 39 38 37 42 61 62 63 60 73 12 13 10 11 65 64 16 67 66 26 25 17 18 24 27 30 29 23 0 